SAT
-1 75 74 21 67 -30 -54 -5 45 3 -22 41 51 7 -18 36 10 -33 -71 48 70 -72 -31 4 42 -39 -69 -40 -38 11 55 61 29 26 -64 -35 6 23 47 -24 25 12 28 15 -60 -65 44 50 -52 19 56 57 -43 -16 -73 2 -68 53 -27 -14 63 -32 -49 -62 -13 9 -20 -66 34 58 46 37 -17 8 59 0
